p idrup
i 29 12 -35 0
i -4 8 41 0
i 31 8 9 0
i 42 -12 -41 0
i 4 7 -6 43 0
i 16 38 -32 0
i -18 -43 8 0
i 3 6 -7 0
i -12 29 17 0
i -5 7 10 0
i 11 -32 -7 0
i 6 -33 -19 0
i 10 25 12 0
i -39 -24 -18 0
i 30 36 -33 0
i -12 -19 31 0
i -42 30 -30 0
i 18 -13 15 0
i -36 -42 -23 0
i 25 -36 -1 0
i -35 -9 0
i -27 -12 -34 0
i 35 25 -32 0
i -42 7 0
i 22 21 39 0
i 9 -10 -40 0
i 2 -13 -32 0
i 10 31 19 0
i -41 19 3 0
i 16 -31 39 0
i -12 -41 0
i 36 0
i 7 -17 22 0
i -31 -2 -25 0
i 16 28 0
i 6 26 19 0
i 16 31 41 0
i -37 42 -35 0
i -15 15 31 0
i 11 -41 -11 0
i 10 33 22 0
i -27 2 -14 0
i 15 11 -9 0
i 34 27 -15 0
i -38 -1 -42 0
i -35 17 21 0
i -19 -39 4 0
i -29 -26 0
i -41 -29 41 0
i 14 -19 -12 0
i 27 25 32 0
i 41 37 -15 0
i -26 11 18 0
i -21 -38 38 0
i -7 -11 17 0
i 18 13 5 0
i -3 -33 30 0
i 23 10 35 -9 0
i -7 -42 39 0
i -34 12 -31 0
i 11 18 -36 0
i 13 -9 -1 0
i -40 28 42 0
i -22 34 -39 0
i -12 39 0
i -22 10 2 0
i -2 11 18 0
i 9 -44 3 0
i 10 -13 -21 0
i 7 20 35 0
i -26 41 18 0
i -17 -2 42 0
i 6 27 -1 0
i -27 -42 -38 0
i 27 -17 -31 0
i 29 -31 -8 0
i -13 21 -10 0
i -33 -3 26 -4 -41 0
i 9 -26 7 0
i -3 -20 -30 0
i 33 9 29 0
i -15 9 0
i 18 8 -44 16 0
i 22 -24 10 0
i 22 -41 41 0
i -34 -23 -18 0
i -17 39 30 0
i -13 11 40 0
i 12 -30 -43 0
i -41 5 0
i 21 -29 0
i -28 22 -14 0
i 20 -1 27 0
i -29 -37 -35 0
i -5 34 -27 0
i 1 32 0
i -22 34 -15 0
i -15 -28 -4 0
i 18 -6 -20 0
i 16 -20 21 0
i -22 -42 15 0
i -11 -22 -39 -5 0
i 1 33 -21 0
i 43 39 10 0
i 32 6 0
i 42 30 -35 0
i -34 25 10 0
i 41 -13 -18 0
i -16 -23 -1 0
i 9 -40 -6 0
i -27 13 -13 0
i 34 -32 22 0
i 3 35 -25 0
i 42 -31 15 0
i 43 16 0
i 22 18 43 0
i -16 -9 38 0
i -8 0
i 30 -39 14 0
i -12 -26 -22 0
i -42 -30 -13 0
i -6 16 -42 0
i 14 -31 16 0
i 5 -28 0
i 21 28 -44 0
i 12 -12 -28 0
i 8 5 -12 0
i -22 -2 -38 0
i 26 21 42 0
i -32 6 17 0
i -5 -43 -19 0
i -4 3 40 16 0
q 0
l 9 42 0
s SATISFIABLE
m -1 -2 3 4 5 6 -7 -8 9 10 11 -12 -13 -14 -15 16 -17 18 -19 20 -21 22 -23 -24 25 26 -27 -28 -29 -30 -31 32 -33 -34 -35 36 -37 38 -39 -40 41 -42 -43 -44 0
q 0
l 17 4 43 -11 -32 0
s SATISFIABLE
m -1 -2 3 -4 -5 6 7 -8 9 10 11 -12 -13 -14 -15 16 17 18 -19 -20 -21 22 -23 -24 25 26 -27 -28 -29 30 -31 32 -33 -34 -35 36 -37 38 -39 -40 -41 -42 -43 -44 0
q 0
l 9 42 0
l 7 -9 -11 -22 -26 -32 43 39 0
l -6 -7 -9 -10 -11 -16 -22 -26 -30 -32 0
s SATISFIABLE
m -1 -2 3 -4 -5 -6 7 -8 9 10 11 -12 -13 -14 -15 16 17 18 -19 -20 -21 22 -23 -24 25 26 -27 -28 -29 30 -31 32 -33 -34 -35 36 -37 38 -39 -40 -41 -42 -43 -44 0
q 0
l 9 42 0
l 7 -9 -11 -22 -26 -32 43 39 0
l -26 -9 -11 -22 -32 39 43 0
l 34 -11 1 42 43 0
l -21 -9 -11 -16 -22 -34 1 0
l -22 -11 43 42 1 0
l -7 -9 -11 -16 -18 -26 -32 -34 -39 0
l -26 -32 -9 -11 -16 -18 -34 -39 22 0
l -39 -11 -16 -18 -34 1 42 22 0
l -11 1 42 43 0
l 22 -9 -15 -16 -18 -26 -32 21 7 0
l 42 1 43 0
l -22 -16 -32 -42 0
l -9 -16 -18 -32 -42 0
l 43 1 0
l 9 -11 -32 0
l -42 -16 -32 -34 -43 0
l -39 -7 -16 -32 -34 -43 0
l -7 -43 -16 -32 -34 0
l 7 -32 18 22 0
l 22 -32 -43 0
l 16 1 0
l 1 0
l 38 -9 -32 0
l -11 -32 0
l -32 0
l 11 -9 0
l -20 -9 -16 0
l -16 -9 0
l -9 0
l 18 -11 0
l -11 0
l -17 -3 0
l -34 -3 0
s SATISFIABLE
m 1 -2 3 -4 -5 6 7 -8 -9 -10 -11 -12 -13 -14 -15 16 -17 18 -19 -20 -21 -22 -23 -24 25 -26 27 -28 -29 30 31 -32 33 -34 -35 36 -37 -38 39 -40 -41 42 -43 -44 0
q 0
s SATISFIABLE
m -1 -2 -3 -4 -5 -6 -7 -8 9 10 -11 -12 -13 -14 -15 -16 -17 -18 -19 -20 -21 -22 -23 -24 -25 -26 -27 -28 -29 -30 -31 -32 -33 -34 -35 36 -37 -38 -39 -40 -41 -42 -43 -44 0
q 0
l -9 33 0
l -29 0
l 33 0
s SATISFIABLE
m -1 -2 -3 -4 -5 -6 -7 -8 -9 -10 -11 -12 -13 -14 -15 -16 -17 -18 -19 -20 -21 -22 -23 -24 -25 -26 -27 -28 -29 -30 -31 -32 33 -34 -35 36 -37 -38 -39 -40 -41 -42 -43 -44 0
q 0
s SATISFIABLE
m -1 -2 -3 -4 -5 -6 -7 -8 -9 -10 -11 -12 -13 -14 -15 -16 -17 -18 -19 -20 -21 -22 -23 -24 -25 -26 -27 -28 -29 -30 -31 -32 -33 -34 -35 36 -37 -38 -39 -40 -41 -42 -43 -44 0
i 5 41 11 71 0
i 30 46 -63 63 0
i 43 69 28 0
i -41 -12 30 0
i -71 6 -63 0
i -10 -57 15 0
i -55 47 -69 0
i -57 28 27 0
i -8 -34 -54 0
i 35 -27 -2 0
i 23 -2 51 0
i 69 7 32 0
i 67 70 19 0
i 26 -54 -9 0
i -24 -27 22 0
i 66 -3 21 -31 0
i 25 -75 26 0
i 21 36 -76 0
i -20 46 -66 0
i -61 -50 0
i -45 27 -71 0
i 56 10 -9 0
i 23 44 15 0
i 64 37 -5 0
i -50 -76 51 0
i -34 16 68 0
i 63 -2 -41 0
i 63 -13 52 0
i -21 54 19 0
i 16 -48 -16 0
i 1 -19 66 0
i 25 56 -63 0
i -46 20 4 13 -67 0
i 25 40 -24 0
i 60 -61 73 0
i 35 45 46 -42 0
i 48 70 37 46 -11 0
i 54 -47 0
i -60 34 -15 0
i -61 -31 49 0
i -19 -29 34 0
i -35 37 7 0
i 19 20 -38 0
i -45 63 46 0
i -13 42 -53 0
i 29 -51 -23 -56 0
i 34 14 -23 0
i 49 -70 -47 0
i -20 -29 54 0
i -13 43 2 0
i 14 -23 17 0
i 39 -37 -39 0
i 39 73 13 0
i -28 -1 13 0
i -57 47 0
i 55 -30 75 0
i -19 -48 48 0
i -11 51 -72 0
i 4 -6 56 0
i 56 -19 -60 0
i 44 24 -64 0
i 15 9 -69 0
i 39 -32 -26 0
i 33 -76 11 0
i -15 72 -64 0
i -74 74 7 0
i -24 -54 44 0
i -56 -57 41 0
i -57 -49 -74 0
i 15 -11 -60 0
i -66 -18 -30 0
i 34 -68 46 0
i 15 -7 41 0
i -70 -15 -20 0
i 25 -44 52 0
i 7 48 -72 0
i 23 -68 11 0
i 39 -29 -12 0
i -20 -32 57 0
i -45 -5 -46 0
i 3 -68 -4 12 0
i -23 64 -71 0
i -63 -38 -7 0
i 35 12 50 0
i -40 21 0
i -5 53 51 0
i 51 21 0
i -35 -45 -31 0
i 26 -27 -22 0
i -74 -36 -47 0
i -34 43 74 0
i 52 -70 61 0
i 8 -67 0
i 6 -32 16 0
i -46 -61 61 0
i 31 -68 4 0
q 0
s SATISFIABLE
m -1 -2 -3 -4 -5 -6 7 -8 -9 -10 11 12 -13 -14 15 -16 -17 -18 19 -20 21 -22 -23 -24 -25 -26 -27 28 -29 -30 -31 -32 -33 -34 -35 36 37 -38 39 -40 -41 -42 -43 -44 -45 -46 -47 -48 -49 -50 -51 -52 -53 -54 -55 -56 -57 -60 -61 -63 -64 66 -67 -68 -69 -70 -71 -72 -73 -74 -75 -76 0
q 0
s SATISFIABLE
m -1 -2 -3 -4 -5 -6 7 -8 -9 -10 11 12 -13 -14 15 -16 -17 -18 19 -20 21 -22 -23 -24 -25 -26 -27 28 -29 -30 -31 -32 -33 -34 -35 36 37 -38 39 -40 -41 -42 -43 -44 -45 -46 -47 -48 -49 -50 -51 -52 -53 -54 -55 -56 -57 -60 -61 -63 -64 66 -67 -68 -69 -70 -71 -72 -73 -74 -75 -76 0
q 0
s SATISFIABLE
m -1 -2 -3 -4 -5 -6 7 -8 -9 -10 11 12 -13 -14 15 -16 -17 -18 19 -20 21 -22 -23 -24 -25 -26 -27 28 -29 -30 -31 -32 -33 -34 -35 36 37 -38 39 -40 -41 -42 -43 -44 -45 -46 -47 -48 -49 -50 -51 -52 -53 -54 -55 -56 -57 -60 -61 -63 -64 66 -67 -68 -69 -70 -71 -72 -73 -74 -75 -76 0
q 0
s SATISFIABLE
m -1 -2 -3 -4 -5 -6 7 -8 -9 -10 11 12 -13 -14 15 -16 -17 -18 19 -20 21 -22 -23 -24 -25 -26 -27 28 -29 -30 -31 -32 -33 -34 -35 36 37 -38 39 -40 -41 -42 -43 -44 -45 -46 -47 -48 -49 -50 -51 -52 -53 -54 -55 -56 -57 -60 -61 -63 -64 66 -67 -68 -69 -70 -71 -72 -73 -74 -75 -76 0
q 0
s SATISFIABLE
m -1 -2 -3 -4 -5 -6 7 -8 -9 -10 11 12 -13 -14 15 -16 -17 -18 19 -20 21 -22 -23 -24 -25 -26 -27 28 -29 -30 -31 -32 -33 -34 -35 36 37 -38 39 -40 -41 -42 -43 -44 -45 -46 -47 -48 -49 -50 -51 -52 -53 -54 -55 -56 -57 -60 -61 -63 -64 66 -67 -68 -69 -70 -71 -72 -73 -74 -75 -76 0
q 0
s SATISFIABLE
m -1 -2 -3 -4 -5 -6 7 -8 -9 -10 11 12 -13 -14 15 -16 -17 -18 19 -20 21 -22 -23 -24 -25 -26 -27 28 -29 -30 -31 -32 -33 -34 -35 36 37 -38 39 -40 -41 -42 -43 -44 -45 -46 -47 -48 -49 -50 -51 -52 -53 -54 -55 -56 -57 -60 -61 -63 -64 66 -67 -68 -69 -70 -71 -72 -73 -74 -75 -76 0
q 0
s SATISFIABLE
m -1 -2 -3 -4 -5 -6 7 -8 -9 -10 11 12 -13 -14 15 -16 -17 -18 19 -20 21 -22 -23 -24 -25 -26 -27 28 -29 -30 -31 -32 -33 -34 -35 36 37 -38 39 -40 -41 -42 -43 -44 -45 -46 -47 -48 -49 -50 -51 -52 -53 -54 -55 -56 -57 -60 -61 -63 -64 66 -67 -68 -69 -70 -71 -72 -73 -74 -75 -76 0
q 0
s SATISFIABLE
m -1 -2 -3 -4 -5 -6 7 -8 -9 -10 11 12 -13 -14 15 -16 -17 -18 19 -20 21 -22 -23 -24 -25 -26 -27 28 -29 -30 -31 -32 -33 -34 -35 36 37 -38 39 -40 -41 -42 -43 -44 -45 -46 -47 -48 -49 -50 -51 -52 -53 -54 -55 -56 -57 -60 -61 -63 -64 66 -67 -68 -69 -70 -71 -72 -73 -74 -75 -76 0
q 0
s SATISFIABLE
m -1 -2 -3 -4 -5 -6 7 -8 -9 -10 11 12 -13 -14 15 -16 -17 -18 19 -20 21 -22 -23 -24 -25 -26 -27 28 -29 -30 -31 -32 -33 -34 -35 36 37 -38 39 -40 -41 -42 -43 -44 -45 -46 -47 -48 -49 -50 -51 -52 -53 -54 -55 -56 -57 -60 -61 -63 -64 66 -67 -68 -69 -70 -71 -72 -73 -74 -75 -76 0
q 0
s SATISFIABLE
m -1 -2 -3 -4 -5 -6 7 -8 -9 -10 11 12 -13 -14 15 -16 -17 -18 19 -20 21 -22 -23 -24 -25 -26 -27 28 -29 -30 -31 -32 -33 -34 -35 36 37 -38 39 -40 -41 -42 -43 -44 -45 -46 -47 -48 -49 -50 -51 -52 -53 -54 -55 -56 -57 -60 -61 -63 -64 66 -67 -68 -69 -70 -71 -72 -73 -74 -75 -76 0
q 0
s SATISFIABLE
m -1 -2 -3 -4 -5 -6 7 -8 -9 -10 11 12 -13 -14 15 -16 -17 -18 19 -20 21 -22 -23 -24 -25 -26 -27 28 -29 -30 -31 -32 -33 -34 -35 36 37 -38 39 -40 -41 -42 -43 -44 -45 -46 -47 -48 -49 -50 -51 -52 -53 -54 -55 -56 -57 -60 -61 -63 -64 66 -67 -68 -69 -70 -71 -72 -73 -74 -75 -76 0
q 0
s SATISFIABLE
m -1 -2 -3 -4 -5 -6 7 -8 -9 -10 11 12 -13 -14 15 -16 -17 -18 19 -20 21 -22 -23 -24 -25 -26 -27 28 -29 -30 -31 -32 -33 -34 -35 36 37 -38 39 -40 -41 -42 -43 -44 -45 -46 -47 -48 -49 -50 -51 -52 -53 -54 -55 -56 -57 -60 -61 -63 -64 66 -67 -68 -69 -70 -71 -72 -73 -74 -75 -76 0
q 0
s SATISFIABLE
m -1 -2 -3 -4 -5 -6 7 -8 -9 -10 11 12 -13 -14 15 -16 -17 -18 19 -20 21 -22 -23 -24 -25 -26 -27 28 -29 -30 -31 -32 -33 -34 -35 36 37 -38 39 -40 -41 -42 -43 -44 -45 -46 -47 -48 -49 -50 -51 -52 -53 -54 -55 -56 -57 -60 -61 -63 -64 66 -67 -68 -69 -70 -71 -72 -73 -74 -75 -76 0
q 0
s SATISFIABLE
m -1 -2 -3 -4 -5 -6 7 -8 -9 -10 11 12 -13 -14 15 -16 -17 -18 19 -20 21 -22 -23 -24 -25 -26 -27 28 -29 -30 -31 -32 -33 -34 -35 36 37 -38 39 -40 -41 -42 -43 -44 -45 -46 -47 -48 -49 -50 -51 -52 -53 -54 -55 -56 -57 -60 -61 -63 -64 66 -67 -68 -69 -70 -71 -72 -73 -74 -75 -76 0
q 0
s SATISFIABLE
m -1 -2 -3 -4 -5 -6 7 -8 -9 -10 11 12 -13 -14 15 -16 -17 -18 19 -20 21 -22 -23 -24 -25 -26 -27 28 -29 -30 -31 -32 -33 -34 -35 36 37 -38 39 -40 -41 -42 -43 -44 -45 -46 -47 -48 -49 -50 -51 -52 -53 -54 -55 -56 -57 -60 -61 -63 -64 66 -67 -68 -69 -70 -71 -72 -73 -74 -75 -76 0
q 0
s SATISFIABLE
m -1 -2 -3 -4 -5 -6 7 -8 -9 -10 11 12 -13 -14 15 -16 -17 -18 19 -20 21 -22 -23 -24 -25 -26 -27 28 -29 -30 -31 -32 -33 -34 -35 36 37 -38 39 -40 -41 -42 -43 -44 -45 -46 -47 -48 -49 -50 -51 -52 -53 -54 -55 -56 -57 -60 -61 -63 -64 66 -67 -68 -69 -70 -71 -72 -73 -74 -75 -76 0
q 0
s SATISFIABLE
m -1 -2 -3 -4 -5 -6 7 -8 -9 -10 11 12 -13 -14 15 -16 -17 -18 19 -20 21 -22 -23 -24 -25 -26 -27 28 -29 -30 -31 -32 -33 -34 -35 36 37 -38 39 -40 -41 -42 -43 -44 -45 -46 -47 -48 -49 -50 -51 -52 -53 -54 -55 -56 -57 -60 -61 -63 -64 66 -67 -68 -69 -70 -71 -72 -73 -74 -75 -76 0
q 0
s SATISFIABLE
m -1 -2 -3 -4 -5 -6 7 -8 -9 -10 11 12 -13 -14 15 -16 -17 -18 19 -20 21 -22 -23 -24 -25 -26 -27 28 -29 -30 -31 -32 -33 -34 -35 36 37 -38 39 -40 -41 -42 -43 -44 -45 -46 -47 -48 -49 -50 -51 -52 -53 -54 -55 -56 -57 -60 -61 -63 -64 66 -67 -68 -69 -70 -71 -72 -73 -74 -75 -76 0
q 0
s SATISFIABLE
m -1 -2 -3 -4 -5 -6 7 -8 -9 -10 11 12 -13 -14 15 -16 -17 -18 19 -20 21 -22 -23 -24 -25 -26 -27 28 -29 -30 -31 -32 -33 -34 -35 36 37 -38 39 -40 -41 -42 -43 -44 -45 -46 -47 -48 -49 -50 -51 -52 -53 -54 -55 -56 -57 -60 -61 -63 -64 66 -67 -68 -69 -70 -71 -72 -73 -74 -75 -76 0
q 0
s SATISFIABLE
m -1 -2 -3 -4 -5 -6 7 -8 -9 -10 11 12 -13 -14 15 -16 -17 -18 19 -20 21 -22 -23 -24 -25 -26 -27 28 -29 -30 -31 -32 -33 -34 -35 36 37 -38 39 -40 -41 -42 -43 -44 -45 -46 -47 -48 -49 -50 -51 -52 -53 -54 -55 -56 -57 -60 -61 -63 -64 66 -67 -68 -69 -70 -71 -72 -73 -74 -75 -76 0
q 0
s SATISFIABLE
m -1 -2 -3 -4 -5 -6 7 -8 -9 -10 11 12 -13 -14 15 -16 -17 -18 19 -20 21 -22 -23 -24 -25 -26 -27 28 -29 -30 -31 -32 -33 -34 -35 36 37 -38 39 -40 -41 -42 -43 -44 -45 -46 -47 -48 -49 -50 -51 -52 -53 -54 -55 -56 -57 -60 -61 -63 -64 66 -67 -68 -69 -70 -71 -72 -73 -74 -75 -76 0
q 0
s SATISFIABLE
m -1 -2 -3 -4 -5 -6 7 -8 -9 -10 11 12 -13 -14 15 -16 -17 -18 19 -20 21 -22 -23 -24 -25 -26 -27 28 -29 -30 -31 -32 -33 -34 -35 36 37 -38 39 -40 -41 -42 -43 -44 -45 -46 -47 -48 -49 -50 -51 -52 -53 -54 -55 -56 -57 -60 -61 -63 -64 66 -67 -68 -69 -70 -71 -72 -73 -74 -75 -76 0
q 0
s SATISFIABLE
m -1 -2 -3 -4 -5 -6 7 -8 -9 -10 11 12 -13 -14 15 -16 -17 -18 19 -20 21 -22 -23 -24 -25 -26 -27 28 -29 -30 -31 -32 -33 -34 -35 36 37 -38 39 -40 -41 -42 -43 -44 -45 -46 -47 -48 -49 -50 -51 -52 -53 -54 -55 -56 -57 -60 -61 -63 -64 66 -67 -68 -69 -70 -71 -72 -73 -74 -75 -76 0
q 0
s SATISFIABLE
m -1 -2 -3 -4 -5 -6 7 -8 -9 -10 11 12 -13 -14 15 -16 -17 -18 19 -20 21 -22 -23 -24 -25 -26 -27 28 -29 -30 -31 -32 -33 -34 -35 36 37 -38 39 -40 -41 -42 -43 -44 -45 -46 -47 -48 -49 -50 -51 -52 -53 -54 -55 -56 -57 -60 -61 -63 -64 66 -67 -68 -69 -70 -71 -72 -73 -74 -75 -76 0
q 0
s SATISFIABLE
m -1 -2 -3 -4 -5 -6 7 -8 -9 -10 11 12 -13 -14 15 -16 -17 -18 19 -20 21 -22 -23 -24 -25 -26 -27 28 -29 -30 -31 -32 -33 -34 -35 36 37 -38 39 -40 -41 -42 -43 -44 -45 -46 -47 -48 -49 -50 -51 -52 -53 -54 -55 -56 -57 -60 -61 -63 -64 66 -67 -68 -69 -70 -71 -72 -73 -74 -75 -76 0
q 0
s SATISFIABLE
m -1 -2 -3 -4 -5 -6 7 -8 -9 -10 11 12 -13 -14 15 -16 -17 -18 19 -20 21 -22 -23 -24 -25 -26 -27 28 -29 -30 -31 -32 -33 -34 -35 36 37 -38 39 -40 -41 -42 -43 -44 -45 -46 -47 -48 -49 -50 -51 -52 -53 -54 -55 -56 -57 -60 -61 -63 -64 66 -67 -68 -69 -70 -71 -72 -73 -74 -75 -76 0
q 0
s SATISFIABLE
m -1 -2 -3 -4 -5 -6 7 -8 -9 -10 11 12 -13 -14 15 -16 -17 -18 19 -20 21 -22 -23 -24 -25 -26 -27 28 -29 -30 -31 -32 -33 -34 -35 36 37 -38 39 -40 -41 -42 -43 -44 -45 -46 -47 -48 -49 -50 -51 -52 -53 -54 -55 -56 -57 -60 -61 -63 -64 66 -67 -68 -69 -70 -71 -72 -73 -74 -75 -76 0
q 0
s SATISFIABLE
m -1 -2 -3 -4 -5 -6 7 -8 -9 -10 11 12 -13 -14 15 -16 -17 -18 19 -20 21 -22 -23 -24 -25 -26 -27 28 -29 -30 -31 -32 -33 -34 -35 36 37 -38 39 -40 -41 -42 -43 -44 -45 -46 -47 -48 -49 -50 -51 -52 -53 -54 -55 -56 -57 -60 -61 -63 -64 66 -67 -68 -69 -70 -71 -72 -73 -74 -75 -76 0
q 0
s SATISFIABLE
m -1 -2 -3 -4 -5 -6 7 -8 -9 -10 11 12 -13 -14 15 -16 -17 -18 19 -20 21 -22 -23 -24 -25 -26 -27 28 -29 -30 -31 -32 -33 -34 -35 36 37 -38 39 -40 -41 -42 -43 -44 -45 -46 -47 -48 -49 -50 -51 -52 -53 -54 -55 -56 -57 -60 -61 -63 -64 66 -67 -68 -69 -70 -71 -72 -73 -74 -75 -76 0
q 0
s SATISFIABLE
m -1 -2 -3 -4 -5 -6 7 -8 -9 -10 11 12 -13 -14 15 -16 -17 -18 19 -20 21 -22 -23 -24 -25 -26 -27 28 -29 -30 -31 -32 -33 -34 -35 36 37 -38 39 -40 -41 -42 -43 -44 -45 -46 -47 -48 -49 -50 -51 -52 -53 -54 -55 -56 -57 -60 -61 -63 -64 66 -67 -68 -69 -70 -71 -72 -73 -74 -75 -76 0
q 0
s SATISFIABLE
m -1 -2 -3 -4 -5 -6 7 -8 -9 -10 11 12 -13 -14 15 -16 -17 -18 19 -20 21 -22 -23 -24 -25 -26 -27 28 -29 -30 -31 -32 -33 -34 -35 36 37 -38 39 -40 -41 -42 -43 -44 -45 -46 -47 -48 -49 -50 -51 -52 -53 -54 -55 -56 -57 -60 -61 -63 -64 66 -67 -68 -69 -70 -71 -72 -73 -74 -75 -76 0
q 0
s SATISFIABLE
m -1 -2 -3 -4 -5 -6 7 -8 -9 -10 11 12 -13 -14 15 -16 -17 -18 19 -20 21 -22 -23 -24 -25 -26 -27 28 -29 -30 -31 -32 -33 -34 -35 36 37 -38 39 -40 -41 -42 -43 -44 -45 -46 -47 -48 -49 -50 -51 -52 -53 -54 -55 -56 -57 -60 -61 -63 -64 66 -67 -68 -69 -70 -71 -72 -73 -74 -75 -76 0
q 0
s SATISFIABLE
m -1 -2 -3 -4 -5 -6 7 -8 -9 -10 11 12 -13 -14 15 -16 -17 -18 19 -20 21 -22 -23 -24 -25 -26 -27 28 -29 -30 -31 -32 -33 -34 -35 36 37 -38 39 -40 -41 -42 -43 -44 -45 -46 -47 -48 -49 -50 -51 -52 -53 -54 -55 -56 -57 -60 -61 -63 -64 66 -67 -68 -69 -70 -71 -72 -73 -74 -75 -76 0
q 0
s SATISFIABLE
m -1 -2 -3 -4 -5 -6 7 -8 -9 -10 11 12 -13 -14 15 -16 -17 -18 19 -20 21 -22 -23 -24 -25 -26 -27 28 -29 -30 -31 -32 -33 -34 -35 36 37 -38 39 -40 -41 -42 -43 -44 -45 -46 -47 -48 -49 -50 -51 -52 -53 -54 -55 -56 -57 -60 -61 -63 -64 66 -67 -68 -69 -70 -71 -72 -73 -74 -75 -76 0
q 0
s SATISFIABLE
m -1 -2 -3 -4 -5 -6 7 -8 -9 -10 11 12 -13 -14 15 -16 -17 -18 19 -20 21 -22 -23 -24 -25 -26 -27 28 -29 -30 -31 -32 -33 -34 -35 36 37 -38 39 -40 -41 -42 -43 -44 -45 -46 -47 -48 -49 -50 -51 -52 -53 -54 -55 -56 -57 -60 -61 -63 -64 66 -67 -68 -69 -70 -71 -72 -73 -74 -75 -76 0
q 0
s SATISFIABLE
m -1 -2 -3 -4 -5 -6 7 -8 -9 -10 11 12 -13 -14 15 -16 -17 -18 19 -20 21 -22 -23 -24 -25 -26 -27 28 -29 -30 -31 -32 -33 -34 -35 36 37 -38 39 -40 -41 -42 -43 -44 -45 -46 -47 -48 -49 -50 -51 -52 -53 -54 -55 -56 -57 -60 -61 -63 -64 66 -67 -68 -69 -70 -71 -72 -73 -74 -75 -76 0
q 0
s SATISFIABLE
m -1 -2 -3 -4 -5 -6 7 -8 -9 -10 11 12 -13 -14 15 -16 -17 -18 19 -20 21 -22 -23 -24 -25 -26 -27 28 -29 -30 -31 -32 -33 -34 -35 36 37 -38 39 -40 -41 -42 -43 -44 -45 -46 -47 -48 -49 -50 -51 -52 -53 -54 -55 -56 -57 -60 -61 -63 -64 66 -67 -68 -69 -70 -71 -72 -73 -74 -75 -76 0
q 0
s SATISFIABLE
m -1 -2 -3 -4 -5 -6 7 -8 -9 -10 11 12 -13 -14 15 -16 -17 -18 19 -20 21 -22 -23 -24 -25 -26 -27 28 -29 -30 -31 -32 -33 -34 -35 36 37 -38 39 -40 -41 -42 -43 -44 -45 -46 -47 -48 -49 -50 -51 -52 -53 -54 -55 -56 -57 -60 -61 -63 -64 66 -67 -68 -69 -70 -71 -72 -73 -74 -75 -76 0
q 0
s SATISFIABLE
m -1 -2 -3 -4 -5 -6 7 -8 -9 -10 11 12 -13 -14 15 -16 -17 -18 19 -20 21 -22 -23 -24 -25 -26 -27 28 -29 -30 -31 -32 -33 -34 -35 36 37 -38 39 -40 -41 -42 -43 -44 -45 -46 -47 -48 -49 -50 -51 -52 -53 -54 -55 -56 -57 -60 -61 -63 -64 66 -67 -68 -69 -70 -71 -72 -73 -74 -75 -76 0
q 0
s SATISFIABLE
m -1 -2 -3 -4 -5 -6 7 -8 -9 -10 11 12 -13 -14 15 -16 -17 -18 19 -20 21 -22 -23 -24 -25 -26 -27 28 -29 -30 -31 -32 -33 -34 -35 36 37 -38 39 -40 -41 -42 -43 -44 -45 -46 -47 -48 -49 -50 -51 -52 -53 -54 -55 -56 -57 -60 -61 -63 -64 66 -67 -68 -69 -70 -71 -72 -73 -74 -75 -76 0
q 0
s SATISFIABLE
m -1 -2 -3 -4 -5 -6 7 -8 -9 -10 11 12 -13 -14 15 -16 -17 -18 19 -20 21 -22 -23 -24 -25 -26 -27 28 -29 -30 -31 -32 -33 -34 -35 36 37 -38 39 -40 -41 -42 -43 -44 -45 -46 -47 -48 -49 -50 -51 -52 -53 -54 -55 -56 -57 -60 -61 -63 -64 66 -67 -68 -69 -70 -71 -72 -73 -74 -75 -76 0
